n = 10; 

m=8; 

											
22	7	36	29	22	13	34	45	19	13
50	39	14	57	49	12	35	43	12	42
60	19	43	26	15	6 	11	53	4 	37
42	65	39	14	1	91	27 	26	89	36
77	17	35	3	14	35	49	54	72	19
16	68	83	64	24	29	6 	2	4	57
56	62	8	83	70	66	24	66	27	25
60	19	43	26	15	6 	11	53	4 	37









 
 


 

 
